(declare-fun e () String)
(declare-fun c () String)
(declare-fun g () String)
(declare-fun b () String)
(declare-fun d () String)
(declare-fun h () String)
(assert (= (str.++ h h e e b d) c))
(assert (= "h" (str.++ d "ae" b "h")))
(assert (= "b" (str.++ "c" g "b")))

(check-sat)
